Route #1: 16 23 34 26 15 25 32 44 12 37 42 28 30
Route #2: 1 13 29 4 45
Route #3: 41 17 39 21 18
Route #4: 40 33 24 2 11 6 43 31 20 38
Route #5: 3 35 10 9 14 19 8
Route #6: 27 22 5 7
Route #7: 36
cost 2009.3834936261474
